s td 46 5 50
b 1 1 3
b 2 2 10
b 3 3 11
b 4 48 50
b 5 44 49
b 6 45 50
b 7 5 7 10
b 8 4 6 11
b 9 14 17 19
b 10 15 16 18
b 11 12 16 18
b 12 13 17 19
b 13 12 18 24
b 14 13 19 25
b 15 20 23 25
b 16 21 22 24
b 17 22 24 46
b 18 23 25 47
b 19 12 24 46
b 20 13 25 47
b 21 26 29 31
b 22 27 28 30
b 23 28 30 34
b 24 29 31 35
b 25 8 30 34
b 26 9 31 35
b 27 32 35 37
b 28 33 34 36
b 29 8 34 36
b 30 9 35 37
b 31 8 36 42
b 32 9 37 43
b 33 39 41 44
b 34 38 40 45
b 35 4 8 9 12 13
b 36 7 8 9 12 13
b 37 5 7 8 13
b 38 4 6 8 12
b 39 8 9 12 13 47
b 40 8 9 12 46 47
b 41 8 9 43 46 47
b 42 8 42 43 46 47
b 43 40 42 43 46 47
b 44 38 40 43 47
b 45 41 42 43 46 47
b 46 39 41 42 47
1 3
2 7
3 8
4 6
5 33
6 34
7 37
8 38
9 12
10 11
11 13
12 14
13 19
14 20
15 18
16 17
17 19
18 20
19 40
20 39
21 24
22 23
23 25
24 26
25 29
26 30
27 30
28 29
29 31
30 32
31 42
32 41
33 46
34 44
35 36
35 38
35 39
36 37
39 40
40 41
41 42
42 43
42 45
43 44
45 46
